Route 1: 0 27 8 84 85 100 37 28 65 3 86 18 39 0
Route 2: 0 26 55 14 7 21 89 25 70 0
Route 3: 0 11 81 87 67 45 40 0
Route 4: 0 53 24 57 88 30 52 9 32 66 0
Route 5: 0 94 35 20 91 19 17 41 46 33 79 31 0
Route 6: 0 62 5 50 64 10 29 82 95 63 69 54 0
Route 7: 0 47 42 68 49 74 96 0
Route 8: 0 76 22 90 71 80 23 0
Route 9: 0 36 61 78 75 73 72 4 0
Route 10: 0 60 56 77 99 92 58 44 38 43 48 2 6 0
Route 11: 0 83 51 12 13 93 1 59 16 98 34 97 15 0
